69 81
16 17
45 1
45 26 2
46 2 61
25 3 49
48 4 24
48 4 67
23 5
23 5
6 38 59
7 39
8 36 58
56 36 9
9 18
56 10 33
10 41
11 33 53
11 19
32 12 53
12 42
32 13 29
20 13
14 51 29
14 22
15 28 51
15 27 28 44
16 81
62 61
62 63 76
80 71
72 73
75 76
77 76
20 21
22 30
23 24
66 25 24
25 26
64 26 31
27 71 31
28 71
30 29
31 30
35 31 78
32 75 34
34 33
34 35
37 35 70
36 37
68 38 37
38 39
40 39
54 43 42
72 43
44 74
45 52
46 47
48 49
50 65 49 61
50 52
75 52 51
52 55 79
54 53
54 55 72
55 57
56 57
69 58 57
59 58
60 59
